(set-info :smt-lib-version 2.6)
(set-logic UF)
(set-info :source |Benchmarks from the paper: "Extending Sledgehammer with SMT Solvers" by Jasmin Blanchette, Sascha Bohme, and Lawrence C. Paulson, CADE 2011.  Translated to SMT2 by Andrew Reynolds and Morgan Deters.|)
(set-info :category "industrial")
(set-info :status unknown)
(declare-sort S1 0)
(declare-sort S2 0)
(declare-sort S3 0)
(declare-sort S4 0)
(declare-sort S5 0)
(declare-sort S6 0)
(declare-sort S7 0)
(declare-sort S8 0)
(declare-sort S9 0)
(declare-sort S10 0)
(declare-sort S11 0)
(declare-sort S12 0)
(declare-sort S13 0)
(declare-sort S14 0)
(declare-sort S15 0)
(declare-sort S16 0)
(declare-sort S17 0)
(declare-sort S18 0)
(declare-sort S19 0)
(declare-sort S20 0)
(declare-sort S21 0)
(declare-fun f1 () S1)
(declare-fun f2 () S1)
(declare-fun f3 (S3 S3) S1)
(declare-fun f4 (S4 S2) S3)
(declare-fun f5 () S4)
(declare-fun f6 (S5 S2) S2)
(declare-fun f7 (S6 S2) S5)
(declare-fun f8 () S6)
(declare-fun f9 () S6)
(declare-fun f10 (S7 S3) S2)
(declare-fun f11 () S7)
(declare-fun f12 () S2)
(declare-fun f13 (S8 S9) S2)
(declare-fun f14 (S10 S2) S8)
(declare-fun f15 () S10)
(declare-fun f16 () S9)
(declare-fun f17 () S3)
(declare-fun f18 () S2)
(declare-fun f19 () S6)
(declare-fun f20 () S2)
(declare-fun f21 (S9) S1)
(declare-fun f22 () S9)
(declare-fun f23 () S2)
(declare-fun f24 () S9)
(declare-fun f25 () S6)
(declare-fun f26 (S11 S3) S3)
(declare-fun f27 (S12 S3) S11)
(declare-fun f28 () S12)
(declare-fun f29 () S12)
(declare-fun f30 () S11)
(declare-fun f31 () S11)
(declare-fun f32 (S13 S9) S3)
(declare-fun f33 (S14 S3) S13)
(declare-fun f34 () S14)
(declare-fun f35 (S15 S15) S1)
(declare-fun f36 () S15)
(declare-fun f37 (S16 S9) S15)
(declare-fun f38 (S17 S15) S16)
(declare-fun f39 () S17)
(declare-fun f40 (S9 S9) S1)
(declare-fun f41 () S9)
(declare-fun f42 (S18 S9) S9)
(declare-fun f43 (S19 S9) S18)
(declare-fun f44 () S19)
(declare-fun f45 () S3)
(declare-fun f46 () S12)
(declare-fun f47 () S19)
(declare-fun f48 (S20 S15) S15)
(declare-fun f49 (S21 S15) S20)
(declare-fun f50 () S21)
(declare-fun f51 () S19)
(declare-fun f52 () S15)
(declare-fun f53 () S12)
(declare-fun f54 () S21)
(declare-fun f55 () S21)
(declare-fun f56 () S19)
(assert (not (= f1 f2)))
(assert (not (exists ((?v0 S2)) (= (f3 (f4 f5 (f6 (f7 f8 (f6 (f7 f9 (f10 f11 (f4 f5 f12))) f12)) (f13 (f14 f15 ?v0) f16))) f17) f1))))
(assert (let ((?v_0 (f6 (f7 f9 (f10 f11 (f4 f5 f12))) f12))) (let ((?v_1 (f7 f8 ?v_0)) (?v_2 (f7 f19 ?v_0))) (or (= (f3 (f4 f5 (f6 ?v_1 f18)) f17) f1) (or (= (f3 (f4 f5 (f6 ?v_2 f18)) f17) f1) (or (= (f3 (f4 f5 (f6 ?v_1 f20)) f17) f1) (= (f3 (f4 f5 (f6 ?v_2 f20)) f17) f1)))))))
(assert (not (= (f21 f16) f1)))
(assert (not (= (f3 (f4 f5 (f6 (f7 f8 (f6 (f7 f9 (f10 f11 (f4 f5 f12))) f12)) f18)) f17) f1)))
(assert (not (= (f3 (f4 f5 (f6 (f7 f19 (f6 (f7 f9 (f10 f11 (f4 f5 f12))) f12)) f18)) f17) f1)))
(assert (= (f3 (f4 f5 (f6 (f7 f8 (f6 (f7 f9 (f10 f11 (f4 f5 f12))) f12)) f20)) f17) f1))
(assert (not (= (f21 f16) f1)))
(assert (not (= f16 f22)))
(assert (not (= f12 f23)))
(assert (= (f4 f5 (f6 (f7 f9 (f10 f11 (f4 f5 f12))) f12)) f17))
(assert (let ((?v_0 (f6 (f7 f9 (f10 f11 (f4 f5 f12))) f12))) (let ((?v_1 (f7 f8 ?v_0)) (?v_2 (f7 f19 ?v_0))) (or (= (f3 (f4 f5 (f6 ?v_1 f18)) f17) f1) (or (= (f3 (f4 f5 (f6 ?v_2 f18)) f17) f1) (or (= (f3 (f4 f5 (f6 ?v_1 f20)) f17) f1) (= (f3 (f4 f5 (f6 ?v_2 f20)) f17) f1)))))))
(assert (forall ((?v0 S2)) (let ((?v_0 (f7 f8 ?v0)) (?v_1 (f7 f19 ?v0))) (=> (= (f4 f5 ?v0) f17) (or (= (f3 (f4 f5 (f6 ?v_0 f18)) f17) f1) (or (= (f3 (f4 f5 (f6 ?v_1 f18)) f17) f1) (or (= (f3 (f4 f5 (f6 ?v_0 f20)) f17) f1) (= (f3 (f4 f5 (f6 ?v_1 f20)) f17) f1))))))))
(assert (not (= f24 f22)))
(assert (=> (= (f21 f16) f1) (exists ((?v0 S2)) (= (f3 (f4 f5 (f6 (f7 f8 f18) (f6 (f7 f25 f12) (f13 (f14 f15 ?v0) f16)))) f17) f1))))
(assert (forall ((?v0 S3) (?v1 S3)) (=> (= (f3 ?v0 ?v1) f1) (= (f3 ?v0 (f26 (f27 f28 (f26 (f27 f29 ?v0) ?v1)) (f26 (f27 f29 f17) f17))) f1))))
(assert (forall ((?v0 S3) (?v1 S3)) (=> (= (f3 ?v0 ?v1) f1) (= (f3 (f26 (f27 f28 (f26 (f27 f29 ?v0) ?v1)) (f26 (f27 f29 f17) f17)) ?v1) f1))))
(assert (= (f26 f30 f17) f17))
(assert (= (f10 f11 f17) f18))
(assert (= (f26 f31 f17) f17))
(assert (= (f4 f5 f18) f17))
(assert (forall ((?v0 S2) (?v1 S3) (?v2 S2) (?v3 S3)) (=> (= (f3 (f4 f5 ?v0) ?v1) f1) (=> (= (f3 (f4 f5 ?v2) ?v3) f1) (= (f3 (f4 f5 (f6 (f7 f8 ?v0) ?v2)) (f26 (f27 f29 ?v1) ?v3)) f1)))))
(assert (forall ((?v0 S3) (?v1 S3) (?v2 S3) (?v3 S3)) (=> (= (f3 (f26 f31 ?v0) ?v1) f1) (=> (= (f3 (f26 f31 ?v2) ?v3) f1) (= (f3 (f26 f31 (f26 (f27 f29 ?v0) ?v2)) (f26 (f27 f29 ?v1) ?v3)) f1)))))
(assert (forall ((?v0 S3) (?v1 S9)) (let ((?v_0 (f27 f28 f17))) (= (f26 ?v_0 (f32 (f33 f34 ?v0) ?v1)) (f32 (f33 f34 (f26 ?v_0 ?v0)) ?v1)))))
(assert (forall ((?v0 S2) (?v1 S9)) (let ((?v_0 (f7 f9 f18))) (= (f6 ?v_0 (f13 (f14 f15 ?v0) ?v1)) (f13 (f14 f15 (f6 ?v_0 ?v0)) ?v1)))))
(assert (forall ((?v0 S3) (?v1 S9) (?v2 S9)) (let ((?v_0 (f33 f34 ?v0))) (=> (= (f3 f17 ?v0) f1) (= (= (f32 ?v_0 ?v1) (f32 ?v_0 ?v2)) (= ?v1 ?v2))))))
(assert (forall ((?v0 S15) (?v1 S9) (?v2 S9)) (let ((?v_0 (f38 f39 ?v0))) (=> (= (f35 f36 ?v0) f1) (= (= (f37 ?v_0 ?v1) (f37 ?v_0 ?v2)) (= ?v1 ?v2))))))
(assert (forall ((?v0 S9) (?v1 S9) (?v2 S9)) (let ((?v_0 (f43 f44 ?v0))) (=> (= (f40 f41 ?v0) f1) (= (= (f42 ?v_0 ?v1) (f42 ?v_0 ?v2)) (= ?v1 ?v2))))))
(assert (forall ((?v0 S3) (?v1 S9) (?v2 S9)) (let ((?v_0 (f33 f34 ?v0))) (=> (= (f3 f17 ?v0) f1) (= (= (f3 (f32 ?v_0 ?v1) (f32 ?v_0 ?v2)) f1) (= (f40 ?v1 ?v2) f1))))))
(assert (forall ((?v0 S15) (?v1 S9) (?v2 S9)) (let ((?v_0 (f38 f39 ?v0))) (=> (= (f35 f36 ?v0) f1) (= (= (f35 (f37 ?v_0 ?v1) (f37 ?v_0 ?v2)) f1) (= (f40 ?v1 ?v2) f1))))))
(assert (forall ((?v0 S9) (?v1 S9) (?v2 S9)) (let ((?v_0 (f43 f44 ?v0))) (=> (= (f40 f41 ?v0) f1) (= (= (f40 (f42 ?v_0 ?v1) (f42 ?v_0 ?v2)) f1) (= (f40 ?v1 ?v2) f1))))))
(assert (forall ((?v0 S3) (?v1 S9) (?v2 S9)) (let ((?v_0 (f33 f34 ?v0))) (=> (= (f3 f17 ?v0) f1) (=> (= (f3 (f32 ?v_0 ?v1) (f32 ?v_0 ?v2)) f1) (= (f40 ?v1 ?v2) f1))))))
(assert (forall ((?v0 S15) (?v1 S9) (?v2 S9)) (let ((?v_0 (f38 f39 ?v0))) (=> (= (f35 f36 ?v0) f1) (=> (= (f35 (f37 ?v_0 ?v1) (f37 ?v_0 ?v2)) f1) (= (f40 ?v1 ?v2) f1))))))
(assert (forall ((?v0 S9) (?v1 S9) (?v2 S9)) (let ((?v_0 (f43 f44 ?v0))) (=> (= (f40 f41 ?v0) f1) (=> (= (f40 (f42 ?v_0 ?v1) (f42 ?v_0 ?v2)) f1) (= (f40 ?v1 ?v2) f1))))))
(assert (forall ((?v0 S9) (?v1 S9) (?v2 S3)) (let ((?v_0 (f33 f34 ?v2))) (=> (= (f40 ?v0 ?v1) f1) (=> (= (f3 f17 ?v2) f1) (= (f3 (f32 ?v_0 ?v0) (f32 ?v_0 ?v1)) f1))))))
(assert (forall ((?v0 S9) (?v1 S9) (?v2 S15)) (let ((?v_0 (f38 f39 ?v2))) (=> (= (f40 ?v0 ?v1) f1) (=> (= (f35 f36 ?v2) f1) (= (f35 (f37 ?v_0 ?v0) (f37 ?v_0 ?v1)) f1))))))
(assert (forall ((?v0 S9) (?v1 S9) (?v2 S9)) (let ((?v_0 (f43 f44 ?v2))) (=> (= (f40 ?v0 ?v1) f1) (=> (= (f40 f41 ?v2) f1) (= (f40 (f42 ?v_0 ?v0) (f42 ?v_0 ?v1)) f1))))))
(assert (forall ((?v0 S9)) (=> (= (f40 ?v0 f16) f1) (=> (not (= ?v0 f22)) (exists ((?v1 S2)) (= (f3 (f4 f5 (f6 (f7 f8 f18) (f6 (f7 f25 f12) (f13 (f14 f15 ?v1) ?v0)))) f17) f1))))))
(assert (= (f26 f30 f45) f45))
(assert (= (f10 f11 f45) f23))
(assert (= (f26 f30 f45) f45))
(assert (= (f10 f11 f45) f23))
(assert (= (f4 f5 f23) f45))
(assert (= (f26 f31 f45) f45))
(assert (forall ((?v0 S3) (?v1 S3)) (= (f26 f30 (f26 (f27 f46 ?v0) ?v1)) (f26 (f27 f46 (f26 f30 ?v0)) (f26 f30 ?v1)))))
(assert (forall ((?v0 S3) (?v1 S3)) (= (f10 f11 (f26 (f27 f46 ?v0) ?v1)) (f6 (f7 f25 (f10 f11 ?v0)) (f10 f11 ?v1)))))
(assert (forall ((?v0 S2) (?v1 S2)) (= (f4 f5 (f6 (f7 f25 ?v0) ?v1)) (f26 (f27 f46 (f4 f5 ?v0)) (f4 f5 ?v1)))))
(assert (forall ((?v0 S3) (?v1 S3)) (= (f26 f31 (f26 (f27 f46 ?v0) ?v1)) (f26 (f27 f46 (f26 f31 ?v0)) (f26 f31 ?v1)))))
(assert (forall ((?v0 S2)) (= (f6 (f7 f25 f23) ?v0) f23)))
(assert (forall ((?v0 S3)) (= (f26 (f27 f46 f45) ?v0) f45)))
(assert (forall ((?v0 S2)) (= (f6 (f7 f25 f23) ?v0) f23)))
(assert (forall ((?v0 S3)) (= (f26 (f27 f46 f45) ?v0) f45)))
(assert (forall ((?v0 S9) (?v1 S9)) (= (= (f40 f22 (f42 (f43 f44 ?v0) ?v1)) f1) (or (= (f40 f22 ?v0) f1) (= ?v1 f22)))))
(assert (forall ((?v0 S2)) (= (f6 (f7 f25 ?v0) f23) f23)))
(assert (forall ((?v0 S3)) (= (f26 (f27 f46 ?v0) f45) f45)))
(assert (forall ((?v0 S2)) (= (f6 (f7 f25 ?v0) f23) f23)))
(assert (forall ((?v0 S3)) (= (f26 (f27 f46 ?v0) f45) f45)))
(assert (forall ((?v0 S15) (?v1 S9) (?v2 S9)) (let ((?v_0 (f38 f39 ?v0))) (= (f37 ?v_0 (f42 (f43 f47 ?v1) ?v2)) (f48 (f49 f50 (f37 ?v_0 ?v1)) (f37 ?v_0 ?v2))))))
(assert (forall ((?v0 S2) (?v1 S9) (?v2 S9)) (let ((?v_0 (f14 f15 ?v0))) (= (f13 ?v_0 (f42 (f43 f47 ?v1) ?v2)) (f6 (f7 f25 (f13 ?v_0 ?v1)) (f13 ?v_0 ?v2))))))
(assert (forall ((?v0 S9) (?v1 S9) (?v2 S9)) (let ((?v_0 (f43 f44 ?v0))) (= (f42 ?v_0 (f42 (f43 f47 ?v1) ?v2)) (f42 (f43 f51 (f42 ?v_0 ?v1)) (f42 ?v_0 ?v2))))))
(assert (forall ((?v0 S3) (?v1 S9) (?v2 S9)) (let ((?v_0 (f33 f34 ?v0))) (= (f32 ?v_0 (f42 (f43 f47 ?v1) ?v2)) (f26 (f27 f46 (f32 ?v_0 ?v1)) (f32 ?v_0 ?v2))))))
(assert (forall ((?v0 S2) (?v1 S2) (?v2 S2)) (= (= ?v0 (f6 (f7 f9 ?v1) ?v2)) (ite (not (= ?v2 f23)) (= (f6 (f7 f25 ?v0) ?v2) ?v1) (= ?v0 f23)))))
(assert (forall ((?v0 S3) (?v1 S3) (?v2 S3)) (= (= ?v0 (f26 (f27 f28 ?v1) ?v2)) (ite (not (= ?v2 f45)) (= (f26 (f27 f46 ?v0) ?v2) ?v1) (= ?v0 f45)))))
(assert (forall ((?v0 S3)) (= (= (f26 f30 ?v0) f45) (= ?v0 f45))))
(assert (forall ((?v0 S3)) (= (= (f10 f11 ?v0) f23) (= ?v0 f45))))
(assert (forall ((?v0 S2)) (= (= (f4 f5 ?v0) f45) (= ?v0 f23))))
(assert (forall ((?v0 S3)) (= (= (f26 f31 ?v0) f45) (= ?v0 f45))))
(assert (forall ((?v0 S9) (?v1 S9)) (= (= (f42 (f43 f44 ?v0) ?v1) f22) (and (= ?v0 f22) (not (= ?v1 f22))))))
(assert (forall ((?v0 S2) (?v1 S9)) (= (= (f13 (f14 f15 ?v0) ?v1) f23) (and (= ?v0 f23) (not (= ?v1 f22))))))
(assert (forall ((?v0 S15) (?v1 S9)) (= (= (f37 (f38 f39 ?v0) ?v1) f52) (and (= ?v0 f52) (not (= ?v1 f22))))))
(assert (forall ((?v0 S3) (?v1 S9)) (= (= (f32 (f33 f34 ?v0) ?v1) f45) (and (= ?v0 f45) (not (= ?v1 f22))))))
(assert (forall ((?v0 S2) (?v1 S2) (?v2 S2)) (= (= (f6 (f7 f9 ?v0) ?v1) ?v2) (ite (not (= ?v1 f23)) (= ?v0 (f6 (f7 f25 ?v2) ?v1)) (= ?v2 f23)))))
(assert (forall ((?v0 S3) (?v1 S3) (?v2 S3)) (= (= (f26 (f27 f28 ?v0) ?v1) ?v2) (ite (not (= ?v1 f45)) (= ?v0 (f26 (f27 f46 ?v2) ?v1)) (= ?v2 f45)))))
(assert (forall ((?v0 S2) (?v1 S2) (?v2 S2)) (=> (not (= ?v0 f23)) (= (f6 (f7 f9 (f6 (f7 f25 ?v1) ?v0)) (f6 (f7 f25 ?v2) ?v0)) (f6 (f7 f9 ?v1) ?v2)))))
(assert (forall ((?v0 S3) (?v1 S3) (?v2 S3)) (=> (not (= ?v0 f45)) (= (f26 (f27 f28 (f26 (f27 f46 ?v1) ?v0)) (f26 (f27 f46 ?v2) ?v0)) (f26 (f27 f28 ?v1) ?v2)))))
(assert (forall ((?v0 S2) (?v1 S2) (?v2 S2)) (let ((?v_0 (f7 f25 ?v0))) (=> (not (= ?v0 f23)) (= (f6 (f7 f9 (f6 ?v_0 ?v1)) (f6 ?v_0 ?v2)) (f6 (f7 f9 ?v1) ?v2))))))
(assert (forall ((?v0 S3) (?v1 S3) (?v2 S3)) (let ((?v_0 (f27 f46 ?v0))) (=> (not (= ?v0 f45)) (= (f26 (f27 f28 (f26 ?v_0 ?v1)) (f26 ?v_0 ?v2)) (f26 (f27 f28 ?v1) ?v2))))))
(assert (forall ((?v0 S2) (?v1 S2) (?v2 S2) (?v3 S2)) (=> (not (= ?v0 f23)) (=> (not (= ?v1 f23)) (= (= (f6 (f7 f9 ?v2) ?v0) (f6 (f7 f9 ?v3) ?v1)) (= (f6 (f7 f25 ?v2) ?v1) (f6 (f7 f25 ?v3) ?v0)))))))
(assert (forall ((?v0 S3) (?v1 S3) (?v2 S3) (?v3 S3)) (=> (not (= ?v0 f45)) (=> (not (= ?v1 f45)) (= (= (f26 (f27 f28 ?v2) ?v0) (f26 (f27 f28 ?v3) ?v1)) (= (f26 (f27 f46 ?v2) ?v1) (f26 (f27 f46 ?v3) ?v0)))))))
(assert (forall ((?v0 S9) (?v1 S9) (?v2 S9)) (let ((?v_0 (f43 f44 ?v0))) (=> (= (f40 f22 ?v0) f1) (=> (= (f40 (f42 ?v_0 ?v1) (f42 ?v_0 ?v2)) f1) (= (f40 ?v1 ?v2) f1))))))
(assert (forall ((?v0 S2) (?v1 S2) (?v2 S2)) (= (f6 (f7 f25 (f6 (f7 f8 ?v0) ?v1)) ?v2) (f6 (f7 f8 (f6 (f7 f25 ?v0) ?v2)) (f6 (f7 f25 ?v1) ?v2)))))
(assert (forall ((?v0 S3) (?v1 S3) (?v2 S3)) (= (f26 (f27 f46 (f26 (f27 f29 ?v0) ?v1)) ?v2) (f26 (f27 f29 (f26 (f27 f46 ?v0) ?v2)) (f26 (f27 f46 ?v1) ?v2)))))
(assert (forall ((?v0 S2) (?v1 S2) (?v2 S2)) (= (f6 (f7 f25 (f6 (f7 f8 ?v0) ?v1)) ?v2) (f6 (f7 f8 (f6 (f7 f25 ?v0) ?v2)) (f6 (f7 f25 ?v1) ?v2)))))
(assert (forall ((?v0 S3) (?v1 S3) (?v2 S3)) (= (f26 (f27 f46 (f26 (f27 f29 ?v0) ?v1)) ?v2) (f26 (f27 f29 (f26 (f27 f46 ?v0) ?v2)) (f26 (f27 f46 ?v1) ?v2)))))
(assert (forall ((?v0 S2) (?v1 S2) (?v2 S2)) (let ((?v_0 (f7 f25 ?v0))) (= (f6 ?v_0 (f6 (f7 f8 ?v1) ?v2)) (f6 (f7 f8 (f6 ?v_0 ?v1)) (f6 ?v_0 ?v2))))))
(assert (forall ((?v0 S3) (?v1 S3) (?v2 S3)) (let ((?v_0 (f27 f46 ?v0))) (= (f26 ?v_0 (f26 (f27 f29 ?v1) ?v2)) (f26 (f27 f29 (f26 ?v_0 ?v1)) (f26 ?v_0 ?v2))))))
(assert (forall ((?v0 S2) (?v1 S2) (?v2 S2)) (let ((?v_0 (f7 f25 ?v0))) (= (f6 ?v_0 (f6 (f7 f8 ?v1) ?v2)) (f6 (f7 f8 (f6 ?v_0 ?v1)) (f6 ?v_0 ?v2))))))
(assert (forall ((?v0 S3) (?v1 S3) (?v2 S3)) (let ((?v_0 (f27 f46 ?v0))) (= (f26 ?v_0 (f26 (f27 f29 ?v1) ?v2)) (f26 (f27 f29 (f26 ?v_0 ?v1)) (f26 ?v_0 ?v2))))))
(assert (forall ((?v0 S2) (?v1 S2) (?v2 S2)) (= (f6 (f7 f25 (f6 (f7 f19 ?v0) ?v1)) ?v2) (f6 (f7 f19 (f6 (f7 f25 ?v0) ?v2)) (f6 (f7 f25 ?v1) ?v2)))))
(assert (forall ((?v0 S3) (?v1 S3) (?v2 S3)) (= (f26 (f27 f46 (f26 (f27 f53 ?v0) ?v1)) ?v2) (f26 (f27 f53 (f26 (f27 f46 ?v0) ?v2)) (f26 (f27 f46 ?v1) ?v2)))))
(assert (forall ((?v0 S2) (?v1 S2) (?v2 S2)) (= (f6 (f7 f25 (f6 (f7 f19 ?v0) ?v1)) ?v2) (f6 (f7 f19 (f6 (f7 f25 ?v0) ?v2)) (f6 (f7 f25 ?v1) ?v2)))))
(assert (forall ((?v0 S3) (?v1 S3) (?v2 S3)) (= (f26 (f27 f46 (f26 (f27 f53 ?v0) ?v1)) ?v2) (f26 (f27 f53 (f26 (f27 f46 ?v0) ?v2)) (f26 (f27 f46 ?v1) ?v2)))))
(assert (forall ((?v0 S2) (?v1 S2) (?v2 S2)) (let ((?v_0 (f7 f25 ?v0))) (= (f6 ?v_0 (f6 (f7 f19 ?v1) ?v2)) (f6 (f7 f19 (f6 ?v_0 ?v1)) (f6 ?v_0 ?v2))))))
(assert (forall ((?v0 S3) (?v1 S3) (?v2 S3)) (let ((?v_0 (f27 f46 ?v0))) (= (f26 ?v_0 (f26 (f27 f53 ?v1) ?v2)) (f26 (f27 f53 (f26 ?v_0 ?v1)) (f26 ?v_0 ?v2))))))
(assert (forall ((?v0 S2) (?v1 S2) (?v2 S2)) (let ((?v_0 (f7 f25 ?v0))) (= (f6 ?v_0 (f6 (f7 f19 ?v1) ?v2)) (f6 (f7 f19 (f6 ?v_0 ?v1)) (f6 ?v_0 ?v2))))))
(assert (forall ((?v0 S3) (?v1 S3) (?v2 S3)) (let ((?v_0 (f27 f46 ?v0))) (= (f26 ?v_0 (f26 (f27 f53 ?v1) ?v2)) (f26 (f27 f53 (f26 ?v_0 ?v1)) (f26 ?v_0 ?v2))))))
(assert (forall ((?v0 S15) (?v1 S15) (?v2 S9)) (= (f37 (f38 f39 (f48 (f49 f50 ?v0) ?v1)) ?v2) (f48 (f49 f50 (f37 (f38 f39 ?v0) ?v2)) (f37 (f38 f39 ?v1) ?v2)))))
(assert (forall ((?v0 S2) (?v1 S2) (?v2 S9)) (= (f13 (f14 f15 (f6 (f7 f25 ?v0) ?v1)) ?v2) (f6 (f7 f25 (f13 (f14 f15 ?v0) ?v2)) (f13 (f14 f15 ?v1) ?v2)))))
(assert (forall ((?v0 S9) (?v1 S9) (?v2 S9)) (= (f42 (f43 f44 (f42 (f43 f51 ?v0) ?v1)) ?v2) (f42 (f43 f51 (f42 (f43 f44 ?v0) ?v2)) (f42 (f43 f44 ?v1) ?v2)))))
(assert (forall ((?v0 S3) (?v1 S3) (?v2 S9)) (= (f32 (f33 f34 (f26 (f27 f46 ?v0) ?v1)) ?v2) (f26 (f27 f46 (f32 (f33 f34 ?v0) ?v2)) (f32 (f33 f34 ?v1) ?v2)))))
(assert (forall ((?v0 S15) (?v1 S9)) (let ((?v_0 (f37 (f38 f39 ?v0) ?v1))) (= (f48 (f49 f50 ?v_0) ?v0) (f48 (f49 f50 ?v0) ?v_0)))))
(assert (forall ((?v0 S2) (?v1 S9)) (let ((?v_0 (f13 (f14 f15 ?v0) ?v1))) (= (f6 (f7 f25 ?v_0) ?v0) (f6 (f7 f25 ?v0) ?v_0)))))
(assert (forall ((?v0 S9) (?v1 S9)) (let ((?v_0 (f42 (f43 f44 ?v0) ?v1))) (= (f42 (f43 f51 ?v_0) ?v0) (f42 (f43 f51 ?v0) ?v_0)))))
(assert (forall ((?v0 S3) (?v1 S9)) (let ((?v_0 (f32 (f33 f34 ?v0) ?v1))) (= (f26 (f27 f46 ?v_0) ?v0) (f26 (f27 f46 ?v0) ?v_0)))))
(assert (forall ((?v0 S2) (?v1 S2) (?v2 S2) (?v3 S2)) (= (f6 (f7 f25 (f6 (f7 f9 ?v0) ?v1)) (f6 (f7 f9 ?v2) ?v3)) (f6 (f7 f9 (f6 (f7 f25 ?v0) ?v2)) (f6 (f7 f25 ?v1) ?v3)))))
(assert (forall ((?v0 S3) (?v1 S3) (?v2 S3) (?v3 S3)) (= (f26 (f27 f46 (f26 (f27 f28 ?v0) ?v1)) (f26 (f27 f28 ?v2) ?v3)) (f26 (f27 f28 (f26 (f27 f46 ?v0) ?v2)) (f26 (f27 f46 ?v1) ?v3)))))
(assert (forall ((?v0 S15)) (= (f37 (f38 f39 ?v0) f41) ?v0)))
(assert (forall ((?v0 S2)) (= (f13 (f14 f15 ?v0) f41) ?v0)))
(assert (forall ((?v0 S9)) (= (f42 (f43 f44 ?v0) f41) ?v0)))
(assert (forall ((?v0 S3)) (= (f32 (f33 f34 ?v0) f41) ?v0)))
(assert (forall ((?v0 S2) (?v1 S9)) (=> (not (= ?v0 f23)) (not (= (f13 (f14 f15 ?v0) ?v1) f23)))))
(assert (forall ((?v0 S15) (?v1 S9)) (=> (not (= ?v0 f52)) (not (= (f37 (f38 f39 ?v0) ?v1) f52)))))
(assert (forall ((?v0 S3) (?v1 S9)) (=> (not (= ?v0 f45)) (not (= (f32 (f33 f34 ?v0) ?v1) f45)))))
(assert (forall ((?v0 S2)) (= (f6 (f7 f9 f23) ?v0) f23)))
(assert (forall ((?v0 S3)) (= (f26 (f27 f28 f45) ?v0) f45)))
(assert (forall ((?v0 S3) (?v1 S3) (?v2 S3)) (let ((?v_0 (f27 f28 ?v2))) (=> (= (f3 ?v0 ?v1) f1) (=> (= (f3 ?v2 f45) f1) (=> (= (f3 f45 (f26 (f27 f46 ?v0) ?v1)) f1) (= (f3 (f26 ?v_0 ?v0) (f26 ?v_0 ?v1)) f1)))))))
(assert (forall ((?v0 S3) (?v1 S3) (?v2 S3)) (let ((?v_0 (f27 f28 ?v2))) (=> (= (f3 ?v0 ?v1) f1) (=> (= (f3 f45 ?v2) f1) (=> (= (f3 f45 (f26 (f27 f46 ?v1) ?v0)) f1) (= (f3 (f26 ?v_0 ?v1) (f26 ?v_0 ?v0)) f1)))))))
(assert (forall ((?v0 S3) (?v1 S3) (?v2 S3)) (=> (= (f3 ?v0 f45) f1) (= (= (f3 (f26 (f27 f28 ?v1) ?v0) ?v2) f1) (= (f3 (f26 (f27 f46 ?v2) ?v0) ?v1) f1)))))
(assert (forall ((?v0 S3) (?v1 S3) (?v2 S3)) (=> (= (f3 ?v0 f45) f1) (= (= (f3 ?v1 (f26 (f27 f28 ?v2) ?v0)) f1) (= (f3 ?v2 (f26 (f27 f46 ?v1) ?v0)) f1)))))
(assert (forall ((?v0 S3) (?v1 S3) (?v2 S3)) (=> (= (f3 f45 ?v0) f1) (=> (= (f3 (f26 (f27 f46 ?v1) ?v0) ?v2) f1) (= (f3 ?v1 (f26 (f27 f28 ?v2) ?v0)) f1)))))
(assert (forall ((?v0 S3) (?v1 S3) (?v2 S3)) (=> (= (f3 f45 ?v0) f1) (=> (= (f3 ?v1 (f26 (f27 f46 ?v2) ?v0)) f1) (= (f3 (f26 (f27 f28 ?v1) ?v0) ?v2) f1)))))
(assert (forall ((?v0 S3) (?v1 S3) (?v2 S3)) (=> (= (f3 f45 ?v0) f1) (= (= (f3 (f26 (f27 f28 ?v1) ?v0) ?v2) f1) (= (f3 ?v1 (f26 (f27 f46 ?v2) ?v0)) f1)))))
(assert (forall ((?v0 S3) (?v1 S3) (?v2 S3)) (=> (= (f3 f45 ?v0) f1) (= (= (f3 ?v1 (f26 (f27 f28 ?v2) ?v0)) f1) (= (f3 (f26 (f27 f46 ?v1) ?v0) ?v2) f1)))))
(assert (forall ((?v0 S3) (?v1 S3) (?v2 S3)) (let ((?v_0 (f26 (f27 f46 ?v2) ?v1))) (= (= (f3 (f26 (f27 f28 ?v0) ?v1) ?v2) f1) (ite (= (f3 f45 ?v1) f1) (= (f3 ?v0 ?v_0) f1) (ite (= (f3 ?v1 f45) f1) (= (f3 ?v_0 ?v0) f1) (= (f3 f45 ?v2) f1)))))))
(assert (forall ((?v0 S3) (?v1 S3) (?v2 S3)) (let ((?v_0 (f26 (f27 f46 ?v0) ?v2))) (= (= (f3 ?v0 (f26 (f27 f28 ?v1) ?v2)) f1) (ite (= (f3 f45 ?v2) f1) (= (f3 ?v_0 ?v1) f1) (ite (= (f3 ?v2 f45) f1) (= (f3 ?v1 ?v_0) f1) (= (f3 ?v0 f45) f1)))))))
(assert (forall ((?v0 S2) (?v1 S2) (?v2 S2) (?v3 S2)) (=> (not (= ?v0 f23)) (=> (not (= ?v1 f23)) (= (f6 (f7 f8 (f6 (f7 f9 ?v2) ?v0)) (f6 (f7 f9 ?v3) ?v1)) (f6 (f7 f9 (f6 (f7 f8 (f6 (f7 f25 ?v2) ?v1)) (f6 (f7 f25 ?v3) ?v0))) (f6 (f7 f25 ?v0) ?v1)))))))
(assert (forall ((?v0 S3) (?v1 S3) (?v2 S3) (?v3 S3)) (=> (not (= ?v0 f45)) (=> (not (= ?v1 f45)) (= (f26 (f27 f29 (f26 (f27 f28 ?v2) ?v0)) (f26 (f27 f28 ?v3) ?v1)) (f26 (f27 f28 (f26 (f27 f29 (f26 (f27 f46 ?v2) ?v1)) (f26 (f27 f46 ?v3) ?v0))) (f26 (f27 f46 ?v0) ?v1)))))))
(assert (forall ((?v0 S2) (?v1 S2) (?v2 S2)) (=> (not (= ?v0 f23)) (= (f6 (f7 f8 (f6 (f7 f9 ?v1) ?v0)) ?v2) (f6 (f7 f9 (f6 (f7 f8 ?v1) (f6 (f7 f25 ?v0) ?v2))) ?v0)))))
(assert (forall ((?v0 S3) (?v1 S3) (?v2 S3)) (=> (not (= ?v0 f45)) (= (f26 (f27 f29 (f26 (f27 f28 ?v1) ?v0)) ?v2) (f26 (f27 f28 (f26 (f27 f29 ?v1) (f26 (f27 f46 ?v0) ?v2))) ?v0)))))
(assert (forall ((?v0 S2) (?v1 S2) (?v2 S2)) (=> (not (= ?v0 f23)) (= (f6 (f7 f8 (f6 (f7 f9 ?v1) ?v0)) ?v2) (f6 (f7 f9 (f6 (f7 f8 ?v1) (f6 (f7 f25 ?v2) ?v0))) ?v0)))))
(assert (forall ((?v0 S3) (?v1 S3) (?v2 S3)) (=> (not (= ?v0 f45)) (= (f26 (f27 f29 (f26 (f27 f28 ?v1) ?v0)) ?v2) (f26 (f27 f28 (f26 (f27 f29 ?v1) (f26 (f27 f46 ?v2) ?v0))) ?v0)))))
(assert (forall ((?v0 S2) (?v1 S2) (?v2 S2)) (=> (not (= ?v0 f23)) (= (f6 (f7 f8 ?v1) (f6 (f7 f9 ?v2) ?v0)) (f6 (f7 f9 (f6 (f7 f8 (f6 (f7 f25 ?v0) ?v1)) ?v2)) ?v0)))))
(assert (forall ((?v0 S3) (?v1 S3) (?v2 S3)) (=> (not (= ?v0 f45)) (= (f26 (f27 f29 ?v1) (f26 (f27 f28 ?v2) ?v0)) (f26 (f27 f28 (f26 (f27 f29 (f26 (f27 f46 ?v0) ?v1)) ?v2)) ?v0)))))
(assert (forall ((?v0 S2) (?v1 S2) (?v2 S2)) (=> (not (= ?v0 f23)) (= (f6 (f7 f8 ?v1) (f6 (f7 f9 ?v2) ?v0)) (f6 (f7 f9 (f6 (f7 f8 ?v2) (f6 (f7 f25 ?v1) ?v0))) ?v0)))))
(assert (forall ((?v0 S3) (?v1 S3) (?v2 S3)) (=> (not (= ?v0 f45)) (= (f26 (f27 f29 ?v1) (f26 (f27 f28 ?v2) ?v0)) (f26 (f27 f28 (f26 (f27 f29 ?v2) (f26 (f27 f46 ?v1) ?v0))) ?v0)))))
(assert (forall ((?v0 S2) (?v1 S2) (?v2 S2) (?v3 S2)) (=> (not (= ?v0 f23)) (=> (not (= ?v1 f23)) (= (f6 (f7 f19 (f6 (f7 f9 ?v2) ?v0)) (f6 (f7 f9 ?v3) ?v1)) (f6 (f7 f9 (f6 (f7 f19 (f6 (f7 f25 ?v2) ?v1)) (f6 (f7 f25 ?v3) ?v0))) (f6 (f7 f25 ?v0) ?v1)))))))
(assert (forall ((?v0 S3) (?v1 S3) (?v2 S3) (?v3 S3)) (=> (not (= ?v0 f45)) (=> (not (= ?v1 f45)) (= (f26 (f27 f53 (f26 (f27 f28 ?v2) ?v0)) (f26 (f27 f28 ?v3) ?v1)) (f26 (f27 f28 (f26 (f27 f53 (f26 (f27 f46 ?v2) ?v1)) (f26 (f27 f46 ?v3) ?v0))) (f26 (f27 f46 ?v0) ?v1)))))))
(assert (forall ((?v0 S2) (?v1 S2) (?v2 S2)) (=> (not (= ?v0 f23)) (= (f6 (f7 f19 (f6 (f7 f9 ?v1) ?v0)) ?v2) (f6 (f7 f9 (f6 (f7 f19 ?v1) (f6 (f7 f25 ?v0) ?v2))) ?v0)))))
(assert (forall ((?v0 S3) (?v1 S3) (?v2 S3)) (=> (not (= ?v0 f45)) (= (f26 (f27 f53 (f26 (f27 f28 ?v1) ?v0)) ?v2) (f26 (f27 f28 (f26 (f27 f53 ?v1) (f26 (f27 f46 ?v0) ?v2))) ?v0)))))
(assert (forall ((?v0 S2) (?v1 S2) (?v2 S2)) (=> (not (= ?v0 f23)) (= (f6 (f7 f19 ?v1) (f6 (f7 f9 ?v2) ?v0)) (f6 (f7 f9 (f6 (f7 f19 (f6 (f7 f25 ?v0) ?v1)) ?v2)) ?v0)))))
(assert (forall ((?v0 S3) (?v1 S3) (?v2 S3)) (=> (not (= ?v0 f45)) (= (f26 (f27 f53 ?v1) (f26 (f27 f28 ?v2) ?v0)) (f26 (f27 f28 (f26 (f27 f53 (f26 (f27 f46 ?v0) ?v1)) ?v2)) ?v0)))))
(assert (forall ((?v0 S2) (?v1 S3) (?v2 S2) (?v3 S3)) (=> (= (f3 (f4 f5 ?v0) ?v1) f1) (=> (= (f3 (f4 f5 ?v2) ?v3) f1) (= (f3 (f4 f5 (f6 (f7 f25 ?v0) ?v2)) (f26 (f27 f46 ?v1) ?v3)) f1)))))
(assert (forall ((?v0 S3) (?v1 S3) (?v2 S3) (?v3 S3)) (=> (= (f3 (f26 f31 ?v0) ?v1) f1) (=> (= (f3 (f26 f31 ?v2) ?v3) f1) (= (f3 (f26 f31 (f26 (f27 f46 ?v0) ?v2)) (f26 (f27 f46 ?v1) ?v3)) f1)))))
(assert (forall ((?v0 S9)) (= (f32 (f33 f34 f45) ?v0) (ite (= ?v0 f22) f17 f45))))
(assert (forall ((?v0 S9)) (= (f13 (f14 f15 f23) ?v0) (ite (= ?v0 f22) f18 f23))))
(assert (forall ((?v0 S9)) (= (f37 (f38 f39 f52) ?v0) (ite (= ?v0 f22) f36 f52))))
(assert (forall ((?v0 S9)) (= (f42 (f43 f44 f22) ?v0) (ite (= ?v0 f22) f41 f22))))
(assert (forall ((?v0 S2)) (= (= (f3 f45 (f4 f5 ?v0)) f1) (not (= ?v0 f23)))))
(assert (forall ((?v0 S3)) (= (= (f3 f45 (f26 f31 ?v0)) f1) (not (= ?v0 f45)))))
(assert (forall ((?v0 S3) (?v1 S9)) (let ((?v_0 (f32 (f33 f34 ?v0) ?v1))) (=> (= (f3 f45 ?v0) f1) (=> (= (f3 ?v0 f17) f1) (= (f3 (f26 (f27 f46 ?v0) ?v_0) ?v_0) f1))))))
(assert (forall ((?v0 S15) (?v1 S9)) (let ((?v_0 (f37 (f38 f39 ?v0) ?v1))) (=> (= (f35 f52 ?v0) f1) (=> (= (f35 ?v0 f36) f1) (= (f35 (f48 (f49 f50 ?v0) ?v_0) ?v_0) f1))))))
(assert (forall ((?v0 S9) (?v1 S9)) (let ((?v_0 (f42 (f43 f44 ?v0) ?v1))) (=> (= (f40 f22 ?v0) f1) (=> (= (f40 ?v0 f41) f1) (= (f40 (f42 (f43 f51 ?v0) ?v_0) ?v_0) f1))))))
(assert (forall ((?v0 S2) (?v1 S2) (?v2 S2) (?v3 S2)) (let ((?v_1 (f7 f25 ?v2)) (?v_0 (f7 f25 (f6 (f7 f19 ?v0) ?v2))) (?v_2 (f6 (f7 f19 ?v1) ?v3))) (= (f6 (f7 f19 (f6 (f7 f25 ?v0) ?v1)) (f6 ?v_1 ?v3)) (f6 (f7 f8 (f6 (f7 f8 (f6 ?v_0 ?v_2)) (f6 ?v_0 ?v3))) (f6 ?v_1 ?v_2))))))
(assert (forall ((?v0 S3) (?v1 S3) (?v2 S3) (?v3 S3)) (let ((?v_1 (f27 f46 ?v2)) (?v_0 (f27 f46 (f26 (f27 f53 ?v0) ?v2))) (?v_2 (f26 (f27 f53 ?v1) ?v3))) (= (f26 (f27 f53 (f26 (f27 f46 ?v0) ?v1)) (f26 ?v_1 ?v3)) (f26 (f27 f29 (f26 (f27 f29 (f26 ?v_0 ?v_2)) (f26 ?v_0 ?v3))) (f26 ?v_1 ?v_2))))))
(assert (forall ((?v0 S9) (?v1 S9)) (=> (= (f40 f22 ?v0) f1) (= (f40 f22 (f42 (f43 f44 ?v0) ?v1)) f1))))
(assert (forall ((?v0 S15) (?v1 S9)) (=> (= (f35 f52 ?v0) f1) (= (f35 f52 (f37 (f38 f39 ?v0) ?v1)) f1))))
(assert (forall ((?v0 S3) (?v1 S9)) (=> (= (f3 f45 ?v0) f1) (= (f3 f45 (f32 (f33 f34 ?v0) ?v1)) f1))))
(assert (forall ((?v0 S3) (?v1 S3) (?v2 S3)) (=> (= (f3 ?v0 ?v1) f1) (=> (= (f3 ?v2 f45) f1) (= (f3 (f26 (f27 f28 ?v1) ?v2) (f26 (f27 f28 ?v0) ?v2)) f1)))))
(assert (forall ((?v0 S3) (?v1 S3) (?v2 S3)) (=> (= (f3 ?v0 ?v1) f1) (=> (= (f3 f45 ?v2) f1) (= (f3 (f26 (f27 f28 ?v0) ?v2) (f26 (f27 f28 ?v1) ?v2)) f1)))))
(assert (forall ((?v0 S3) (?v1 S3)) (=> (= (f3 ?v0 f45) f1) (=> (= (f3 ?v1 f45) f1) (= (f3 f45 (f26 (f27 f28 ?v0) ?v1)) f1)))))
(assert (forall ((?v0 S3) (?v1 S3)) (=> (= (f3 ?v0 f45) f1) (=> (= (f3 f45 ?v1) f1) (= (f3 (f26 (f27 f28 ?v0) ?v1) f45) f1)))))
(assert (forall ((?v0 S3) (?v1 S3)) (=> (= (f3 f45 ?v0) f1) (=> (= (f3 ?v1 f45) f1) (= (f3 (f26 (f27 f28 ?v0) ?v1) f45) f1)))))
(assert (forall ((?v0 S3) (?v1 S3)) (=> (= (f3 f45 ?v0) f1) (=> (= (f3 f45 ?v1) f1) (= (f3 f45 (f26 (f27 f28 ?v0) ?v1)) f1)))))
(assert (forall ((?v0 S3) (?v1 S3) (?v2 S3)) (= (= (f3 (f26 (f27 f28 ?v0) ?v1) (f26 (f27 f28 ?v2) ?v1)) f1) (and (=> (= (f3 f45 ?v1) f1) (= (f3 ?v0 ?v2) f1)) (and (=> (= (f3 ?v1 f45) f1) (= (f3 ?v2 ?v0) f1)) (not (= ?v1 f45)))))))
(assert (forall ((?v0 S3) (?v1 S3)) (= (= (f3 (f26 (f27 f28 ?v0) ?v1) f45) f1) (or (and (= (f3 f45 ?v0) f1) (= (f3 ?v1 f45) f1)) (and (= (f3 ?v0 f45) f1) (= (f3 f45 ?v1) f1))))))
(assert (forall ((?v0 S3) (?v1 S3)) (= (= (f3 f45 (f26 (f27 f28 ?v0) ?v1)) f1) (or (and (= (f3 f45 ?v0) f1) (= (f3 f45 ?v1) f1)) (and (= (f3 ?v0 f45) f1) (= (f3 ?v1 f45) f1))))))
(assert (forall ((?v0 S2) (?v1 S2) (?v2 S9)) (=> (not (= ?v0 f23)) (= (f13 (f14 f15 (f6 (f7 f9 ?v1) ?v0)) ?v2) (f6 (f7 f9 (f13 (f14 f15 ?v1) ?v2)) (f13 (f14 f15 ?v0) ?v2))))))
(assert (forall ((?v0 S3) (?v1 S3) (?v2 S9)) (=> (not (= ?v0 f45)) (= (f32 (f33 f34 (f26 (f27 f28 ?v1) ?v0)) ?v2) (f26 (f27 f28 (f32 (f33 f34 ?v1) ?v2)) (f32 (f33 f34 ?v0) ?v2))))))
(assert (forall ((?v0 S3)) (= (f32 (f33 f34 ?v0) f22) f17)))
(assert (forall ((?v0 S2)) (= (f13 (f14 f15 ?v0) f22) f18)))
(assert (forall ((?v0 S15)) (= (f37 (f38 f39 ?v0) f22) f36)))
(assert (forall ((?v0 S9)) (= (f42 (f43 f44 ?v0) f22) f41)))
(assert (forall ((?v0 S2) (?v1 S2)) (=> (not (= ?v0 f23)) (= (f4 f5 (f6 (f7 f9 ?v1) ?v0)) (f26 (f27 f28 (f4 f5 ?v1)) (f4 f5 ?v0))))))
(assert (forall ((?v0 S3) (?v1 S3)) (=> (not (= ?v0 f45)) (= (f26 f31 (f26 (f27 f28 ?v1) ?v0)) (f26 (f27 f28 (f26 f31 ?v1)) (f26 f31 ?v0))))))
(assert (forall ((?v0 S3) (?v1 S9)) (let ((?v_0 (f32 (f33 f34 ?v0) ?v1))) (=> (= (f3 f17 ?v0) f1) (= (f3 ?v_0 (f26 (f27 f46 ?v0) ?v_0)) f1)))))
(assert (forall ((?v0 S15) (?v1 S9)) (let ((?v_0 (f37 (f38 f39 ?v0) ?v1))) (=> (= (f35 f36 ?v0) f1) (= (f35 ?v_0 (f48 (f49 f50 ?v0) ?v_0)) f1)))))
(assert (forall ((?v0 S9) (?v1 S9)) (let ((?v_0 (f42 (f43 f44 ?v0) ?v1))) (=> (= (f40 f41 ?v0) f1) (= (f40 ?v_0 (f42 (f43 f51 ?v0) ?v_0)) f1)))))
(assert (forall ((?v0 S3) (?v1 S9)) (=> (= (f3 f17 ?v0) f1) (= (f3 f17 (f26 (f27 f46 ?v0) (f32 (f33 f34 ?v0) ?v1))) f1))))
(assert (forall ((?v0 S15) (?v1 S9)) (=> (= (f35 f36 ?v0) f1) (= (f35 f36 (f48 (f49 f50 ?v0) (f37 (f38 f39 ?v0) ?v1))) f1))))
(assert (forall ((?v0 S9) (?v1 S9)) (=> (= (f40 f41 ?v0) f1) (= (f40 f41 (f42 (f43 f51 ?v0) (f42 (f43 f44 ?v0) ?v1))) f1))))
(assert (forall ((?v0 S9) (?v1 S9) (?v2 S3)) (let ((?v_0 (f33 f34 ?v2))) (=> (= (f40 ?v0 ?v1) f1) (=> (= (f3 f45 ?v2) f1) (=> (= (f3 ?v2 f17) f1) (= (f3 (f32 ?v_0 ?v1) (f32 ?v_0 ?v0)) f1)))))))
(assert (forall ((?v0 S9) (?v1 S9) (?v2 S15)) (let ((?v_0 (f38 f39 ?v2))) (=> (= (f40 ?v0 ?v1) f1) (=> (= (f35 f52 ?v2) f1) (=> (= (f35 ?v2 f36) f1) (= (f35 (f37 ?v_0 ?v1) (f37 ?v_0 ?v0)) f1)))))))
(assert (forall ((?v0 S9) (?v1 S9) (?v2 S9)) (let ((?v_0 (f43 f44 ?v2))) (=> (= (f40 ?v0 ?v1) f1) (=> (= (f40 f22 ?v2) f1) (=> (= (f40 ?v2 f41) f1) (= (f40 (f42 ?v_0 ?v1) (f42 ?v_0 ?v0)) f1)))))))
(assert (forall ((?v0 S3) (?v1 S9)) (=> (= (f3 f17 ?v0) f1) (=> (= (f40 f22 ?v1) f1) (= (f3 f17 (f32 (f33 f34 ?v0) ?v1)) f1)))))
(assert (forall ((?v0 S15) (?v1 S9)) (=> (= (f35 f36 ?v0) f1) (=> (= (f40 f22 ?v1) f1) (= (f35 f36 (f37 (f38 f39 ?v0) ?v1)) f1)))))
(assert (forall ((?v0 S9) (?v1 S9)) (=> (= (f40 f41 ?v0) f1) (=> (= (f40 f22 ?v1) f1) (= (f40 f41 (f42 (f43 f44 ?v0) ?v1)) f1)))))
(assert (forall ((?v0 S3) (?v1 S9)) (= (f13 (f14 f15 (f10 f11 ?v0)) ?v1) (f10 f11 (f32 (f33 f34 ?v0) ?v1)))))
(assert (forall ((?v0 S3) (?v1 S3)) (= (= (f26 f30 ?v0) (f26 f30 ?v1)) (= ?v0 ?v1))))
(assert (forall ((?v0 S3) (?v1 S3)) (= (= (f10 f11 ?v0) (f10 f11 ?v1)) (= ?v0 ?v1))))
(assert (forall ((?v0 S9)) (= (f32 (f33 f34 f17) ?v0) f17)))
(assert (forall ((?v0 S9)) (= (f13 (f14 f15 f18) ?v0) f18)))
(assert (forall ((?v0 S9)) (= (f37 (f38 f39 f36) ?v0) f36)))
(assert (forall ((?v0 S9)) (= (f42 (f43 f44 f41) ?v0) f41)))
(assert (forall ((?v0 S2) (?v1 S2) (?v2 S2)) (= (f6 (f7 f9 (f6 (f7 f8 ?v0) ?v1)) ?v2) (f6 (f7 f8 (f6 (f7 f9 ?v0) ?v2)) (f6 (f7 f9 ?v1) ?v2)))))
(assert (forall ((?v0 S3) (?v1 S3) (?v2 S3)) (= (f26 (f27 f28 (f26 (f27 f29 ?v0) ?v1)) ?v2) (f26 (f27 f29 (f26 (f27 f28 ?v0) ?v2)) (f26 (f27 f28 ?v1) ?v2)))))
(assert (forall ((?v0 S2) (?v1 S2) (?v2 S2)) (= (f6 (f7 f9 (f6 (f7 f19 ?v0) ?v1)) ?v2) (f6 (f7 f19 (f6 (f7 f9 ?v0) ?v2)) (f6 (f7 f9 ?v1) ?v2)))))
(assert (forall ((?v0 S3) (?v1 S3) (?v2 S3)) (= (f26 (f27 f28 (f26 (f27 f53 ?v0) ?v1)) ?v2) (f26 (f27 f53 (f26 (f27 f28 ?v0) ?v2)) (f26 (f27 f28 ?v1) ?v2)))))
(assert (forall ((?v0 S2) (?v1 S2) (?v2 S9)) (= (f13 (f14 f15 (f6 (f7 f9 ?v0) ?v1)) ?v2) (f6 (f7 f9 (f13 (f14 f15 ?v0) ?v2)) (f13 (f14 f15 ?v1) ?v2)))))
(assert (forall ((?v0 S3) (?v1 S3) (?v2 S9)) (= (f32 (f33 f34 (f26 (f27 f28 ?v0) ?v1)) ?v2) (f26 (f27 f28 (f32 (f33 f34 ?v0) ?v2)) (f32 (f33 f34 ?v1) ?v2)))))
(assert (forall ((?v0 S2) (?v1 S2)) (= (f4 f5 (f6 (f7 f19 ?v0) ?v1)) (f4 f5 (f6 (f7 f19 ?v1) ?v0)))))
(assert (forall ((?v0 S3) (?v1 S3)) (= (f26 f31 (f26 (f27 f53 ?v0) ?v1)) (f26 f31 (f26 (f27 f53 ?v1) ?v0)))))
(assert (forall ((?v0 S2) (?v1 S9)) (= (f4 f5 (f13 (f14 f15 ?v0) ?v1)) (f32 (f33 f34 (f4 f5 ?v0)) ?v1))))
(assert (forall ((?v0 S3) (?v1 S9)) (= (f26 f31 (f32 (f33 f34 ?v0) ?v1)) (f32 (f33 f34 (f26 f31 ?v0)) ?v1))))
(assert (forall ((?v0 S3) (?v1 S3)) (= (f26 f31 (f26 (f27 f28 ?v0) ?v1)) (f26 (f27 f28 (f26 f31 ?v0)) (f26 f31 ?v1)))))
(assert (forall ((?v0 S2) (?v1 S2)) (= (f4 f5 (f6 (f7 f9 ?v0) ?v1)) (f26 (f27 f28 (f4 f5 ?v0)) (f4 f5 ?v1)))))
(assert (forall ((?v0 S3) (?v1 S3)) (= (f26 f30 (f26 (f27 f29 ?v0) ?v1)) (f26 (f27 f29 (f26 f30 ?v0)) (f26 f30 ?v1)))))
(assert (forall ((?v0 S3) (?v1 S3)) (= (f10 f11 (f26 (f27 f29 ?v0) ?v1)) (f6 (f7 f8 (f10 f11 ?v0)) (f10 f11 ?v1)))))
(assert (forall ((?v0 S3) (?v1 S3)) (= (f26 f30 (f26 (f27 f29 ?v0) ?v1)) (f26 (f27 f29 (f26 f30 ?v0)) (f26 f30 ?v1)))))
(assert (forall ((?v0 S3) (?v1 S3)) (= (f10 f11 (f26 (f27 f29 ?v0) ?v1)) (f6 (f7 f8 (f10 f11 ?v0)) (f10 f11 ?v1)))))
(assert (forall ((?v0 S3) (?v1 S3)) (= (f26 f30 (f26 (f27 f53 ?v0) ?v1)) (f26 (f27 f53 (f26 f30 ?v0)) (f26 f30 ?v1)))))
(assert (forall ((?v0 S3) (?v1 S3)) (= (f10 f11 (f26 (f27 f53 ?v0) ?v1)) (f6 (f7 f19 (f10 f11 ?v0)) (f10 f11 ?v1)))))
(assert (forall ((?v0 S3) (?v1 S3)) (= (f26 f30 (f26 (f27 f53 ?v0) ?v1)) (f26 (f27 f53 (f26 f30 ?v0)) (f26 f30 ?v1)))))
(assert (forall ((?v0 S3) (?v1 S3)) (= (f10 f11 (f26 (f27 f53 ?v0) ?v1)) (f6 (f7 f19 (f10 f11 ?v0)) (f10 f11 ?v1)))))
(assert (forall ((?v0 S3) (?v1 S9)) (= (f26 f30 (f32 (f33 f34 ?v0) ?v1)) (f32 (f33 f34 (f26 f30 ?v0)) ?v1))))
(assert (forall ((?v0 S3) (?v1 S9)) (= (f10 f11 (f32 (f33 f34 ?v0) ?v1)) (f13 (f14 f15 (f10 f11 ?v0)) ?v1))))
(assert (forall ((?v0 S3) (?v1 S3)) (= (f26 f30 (f26 (f27 f28 ?v0) ?v1)) (f26 (f27 f28 (f26 f30 ?v0)) (f26 f30 ?v1)))))
(assert (forall ((?v0 S3) (?v1 S3)) (= (f10 f11 (f26 (f27 f28 ?v0) ?v1)) (f6 (f7 f9 (f10 f11 ?v0)) (f10 f11 ?v1)))))
(assert (forall ((?v0 S15) (?v1 S9)) (let ((?v_0 (= (f21 ?v1) f1))) (= (= (f35 f52 (f37 (f38 f39 ?v0) ?v1)) f1) (or (= ?v1 f22) (or (and ?v_0 (not (= ?v0 f52))) (and (not ?v_0) (= (f35 f52 ?v0) f1))))))))
(assert (forall ((?v0 S3) (?v1 S9)) (let ((?v_0 (= (f21 ?v1) f1))) (= (= (f3 f45 (f32 (f33 f34 ?v0) ?v1)) f1) (or (= ?v1 f22) (or (and ?v_0 (not (= ?v0 f45))) (and (not ?v_0) (= (f3 f45 ?v0) f1))))))))
(assert (forall ((?v0 S9)) (=> (= (f40 ?v0 f22) f1) false)))
(assert (forall ((?v0 S15) (?v1 S9)) (= (= (f35 (f37 (f38 f39 ?v0) ?v1) f52) f1) (and (not (= (f21 ?v1) f1)) (= (f35 ?v0 f52) f1)))))
(assert (forall ((?v0 S3) (?v1 S9)) (= (= (f3 (f32 (f33 f34 ?v0) ?v1) f45) f1) (and (not (= (f21 ?v1) f1)) (= (f3 ?v0 f45) f1)))))
(assert (forall ((?v0 S2) (?v1 S2) (?v2 S2) (?v3 S2) (?v4 S2)) (let ((?v_0 (f7 f25 ?v0))) (= (f6 (f7 f9 (f6 (f7 f19 (f6 ?v_0 ?v1)) (f6 (f7 f25 ?v2) ?v3))) ?v4) (f6 (f7 f8 (f6 ?v_0 (f6 (f7 f9 (f6 (f7 f19 ?v1) ?v3)) ?v4))) (f6 (f7 f25 (f6 (f7 f9 (f6 (f7 f19 ?v0) ?v2)) ?v4)) ?v3))))))
(assert (forall ((?v0 S3) (?v1 S3) (?v2 S3) (?v3 S3) (?v4 S3)) (let ((?v_0 (f27 f46 ?v0))) (= (f26 (f27 f28 (f26 (f27 f53 (f26 ?v_0 ?v1)) (f26 (f27 f46 ?v2) ?v3))) ?v4) (f26 (f27 f29 (f26 ?v_0 (f26 (f27 f28 (f26 (f27 f53 ?v1) ?v3)) ?v4))) (f26 (f27 f46 (f26 (f27 f28 (f26 (f27 f53 ?v0) ?v2)) ?v4)) ?v3))))))
(assert (forall ((?v0 S3)) (= (f26 (f27 f53 (f26 (f27 f46 ?v0) ?v0)) f17) (f26 (f27 f46 (f26 (f27 f29 ?v0) f17)) (f26 (f27 f53 ?v0) f17)))))
(assert (forall ((?v0 S2)) (= (f6 (f7 f19 (f6 (f7 f25 ?v0) ?v0)) f18) (f6 (f7 f25 (f6 (f7 f8 ?v0) f18)) (f6 (f7 f19 ?v0) f18)))))
(assert (forall ((?v0 S15)) (= (f48 (f49 f54 (f48 (f49 f50 ?v0) ?v0)) f36) (f48 (f49 f50 (f48 (f49 f55 ?v0) f36)) (f48 (f49 f54 ?v0) f36)))))
(assert (forall ((?v0 S15) (?v1 S15) (?v2 S15) (?v3 S15) (?v4 S15)) (= (= (f35 (f48 (f49 f55 (f48 (f49 f50 ?v0) ?v1)) ?v2) (f48 (f49 f55 (f48 (f49 f50 ?v3) ?v1)) ?v4)) f1) (= (f35 (f48 (f49 f55 (f48 (f49 f50 (f48 (f49 f54 ?v0) ?v3)) ?v1)) ?v2) ?v4) f1))))
(assert (forall ((?v0 S3) (?v1 S3) (?v2 S3) (?v3 S3) (?v4 S3)) (= (= (f3 (f26 (f27 f29 (f26 (f27 f46 ?v0) ?v1)) ?v2) (f26 (f27 f29 (f26 (f27 f46 ?v3) ?v1)) ?v4)) f1) (= (f3 (f26 (f27 f29 (f26 (f27 f46 (f26 (f27 f53 ?v0) ?v3)) ?v1)) ?v2) ?v4) f1))))
(assert (forall ((?v0 S15) (?v1 S15) (?v2 S15) (?v3 S15) (?v4 S15)) (= (= (f35 (f48 (f49 f55 (f48 (f49 f50 ?v0) ?v1)) ?v2) (f48 (f49 f55 (f48 (f49 f50 ?v3) ?v1)) ?v4)) f1) (= (f35 ?v2 (f48 (f49 f55 (f48 (f49 f50 (f48 (f49 f54 ?v3) ?v0)) ?v1)) ?v4)) f1))))
(assert (forall ((?v0 S3) (?v1 S3) (?v2 S3) (?v3 S3) (?v4 S3)) (= (= (f3 (f26 (f27 f29 (f26 (f27 f46 ?v0) ?v1)) ?v2) (f26 (f27 f29 (f26 (f27 f46 ?v3) ?v1)) ?v4)) f1) (= (f3 ?v2 (f26 (f27 f29 (f26 (f27 f46 (f26 (f27 f53 ?v3) ?v0)) ?v1)) ?v4)) f1))))
(assert (= (f3 f45 (f26 (f27 f29 f17) f17)) f1))
(assert (= (f35 f52 (f48 (f49 f55 f36) f36)) f1))
(assert (= (f40 f22 (f42 (f43 f47 f41) f41)) f1))
(assert (forall ((?v0 S15) (?v1 S15)) (= (= (f35 f52 (f48 (f49 f55 (f48 (f49 f50 ?v0) ?v0)) (f48 (f49 f50 ?v1) ?v1))) f1) (or (not (= ?v0 f52)) (not (= ?v1 f52))))))
(assert (forall ((?v0 S3) (?v1 S3)) (= (= (f3 f45 (f26 (f27 f29 (f26 (f27 f46 ?v0) ?v0)) (f26 (f27 f46 ?v1) ?v1))) f1) (or (not (= ?v0 f45)) (not (= ?v1 f45))))))
(assert (forall ((?v0 S15) (?v1 S15)) (not (= (f35 (f48 (f49 f55 (f48 (f49 f50 ?v0) ?v0)) (f48 (f49 f50 ?v1) ?v1)) f52) f1))))
(assert (forall ((?v0 S3) (?v1 S3)) (not (= (f3 (f26 (f27 f29 (f26 (f27 f46 ?v0) ?v0)) (f26 (f27 f46 ?v1) ?v1)) f45) f1))))
(assert (forall ((?v0 S9)) (= (f42 (f43 f51 f41) ?v0) ?v0)))
(assert (forall ((?v0 S9) (?v1 S9)) (= (= f41 (f42 (f43 f51 ?v0) ?v1)) (and (= ?v0 f41) (= ?v1 f41)))))
(assert (forall ((?v0 S9)) (= (f42 (f43 f51 ?v0) f41) ?v0)))
(assert (forall ((?v0 S9) (?v1 S9)) (= (f42 (f43 f47 ?v0) ?v1) (f42 (f43 f47 ?v1) ?v0))))
(assert (forall ((?v0 S3) (?v1 S3)) (= (f26 (f27 f46 ?v0) ?v1) (f26 (f27 f46 ?v1) ?v0))))
(assert (forall ((?v0 S9) (?v1 S9)) (let ((?v_0 (f43 f44 ?v0))) (= (f42 ?v_0 ?v1) (ite (= ?v1 f22) f41 (f42 (f43 f51 ?v0) (f42 ?v_0 (f42 (f43 f56 ?v1) f41))))))))
(assert (forall ((?v0 S9) (?v1 S9)) (= (f42 (f43 f51 ?v0) ?v1) (ite (= ?v0 f22) f22 (f42 (f43 f47 ?v1) (f42 (f43 f51 (f42 (f43 f56 ?v0) f41)) ?v1))))))
(check-sat)
(exit)
